29805
145,245,305,649,656,677,721,777,807,943,1038,1199,1202,1342,1365,1512,1525,1673,1733,1896,1970,2234,2310,2402,2596,2683,2727,2767,2821,2874,3126,3153,3202,3206,3236,3245,3262,3337,3495,3775,3851,3944,4257,4350,4369,4442,4513,4797,4919,4948
